[[42, 43, 45, 52, 53, 54, 63, 62, 61, 70, 71, 72, 81, 80, 69, 78], [79, 88, 89, 90, 99, 98, 97, 96, 87, 86, 95, 94], [93, 92, 91, 83, 82, 73, 84, 85, 76, 75, 77, 68, 67], [66, 74, 65, 64, 56, 55, 46, 47, 57, 58, 59, 49, 60, 51, 50], [41, 32, 40, 39, 48, 38, 29, 37, 28, 30, 31, 19, 21, 22], [13, 20, 11, 10, 2, 12, 3, 4, 14, 5, 6], [7, 8, 9, 18, 17, 16, 15, 23, 24, 25, 26, 27, 35, 36, 44, 33, 34]]